N = 200;
F = 5;
MaxItemsPerDay = 40;
MaxDay = 50;
name = ["i1", "i2", "i3", "i4", "i5", "i6", "i7", "i8", "i9", "i10", "i11", "i12", "i13", "i14", "i15", "i16", "i17", "i18", "i19", "i20", "i21", "i22", "i23", "i24", "i25", "i26", "i27", "i28", "i29", "i30", "i31", "i32", "i33", "i34", "i35", "i36", "i37", "i38", "i39", "i40", "i41", "i42", "i43", "i44", "i45", "i46", "i47", "i48", "i49", "i50", "i51", "i52", "i53", "i54", "i55", "i56", "i57", "i58", "i59", "i60", "i61", "i62", "i63", "i64", "i65", "i66", "i67", "i68", "i69", "i70", "i71", "i72", "i73", "i74", "i75", "i76", "i77", "i78", "i79", "i80", "i81", "i82", "i83", "i84", "i85", "i86", "i87", "i88", "i89", "i90", "i91", "i92", "i93", "i94", "i95", "i96", "i97", "i98", "i99", "i100", "i101", "i102", "i103", "i104", "i105", "i106", "i107", "i108", "i109", "i110", "i111", "i112", "i113", "i114", "i115", "i116", "i117", "i118", "i119", "i120", "i121", "i122", "i123", "i124", "i125", "i126", "i127", "i128", "i129", "i130", "i131", "i132", "i133", "i134", "i135", "i136", "i137", "i138", "i139", "i140", "i141", "i142", "i143", "i144", "i145", "i146", "i147", "i148", "i149", "i150", "i151", "i152", "i153", "i154", "i155", "i156", "i157", "i158", "i159", "i160", "i161", "i162", "i163", "i164", "i165", "i166", "i167", "i168", "i169", "i170", "i171", "i172", "i173", "i174", "i175", "i176", "i177", "i178", "i179", "i180", "i181", "i182", "i183", "i184", "i185", "i186", "i187", "i188", "i189", "i190", "i191", "i192", "i193", "i194", "i195", "i196", "i197", "i198", "i199", "i200"];
kind = [2, 4, 3, 6, 6, 2, 3, 3, 6, 2, 4, 2, 2, 6, 5, 5, 3, 1, 1, 5, 6, 5, 2, 4, 1, 1, 1, 1, 5, 4, 3, 5, 1, 1, 5, 3, 1, 5, 6, 1, 5, 4, 6, 5, 3, 6, 1, 1, 5, 3, 6, 5, 2, 1, 3, 6, 4, 3, 3, 3, 4, 4, 1, 6, 1, 4, 4, 2, 3, 3, 6, 2, 4, 5, 2, 3, 6, 4, 4, 4, 6, 1, 1, 6, 2, 2, 2, 1, 5, 3, 2, 1, 4, 5, 2, 2, 3, 6, 3, 5, 4, 3, 6, 2, 1, 5, 5, 3, 2, 4, 2, 6, 3, 2, 1, 1, 6, 5, 3, 4, 6, 2, 4, 3, 2, 6, 1, 6, 2, 5, 6, 3, 6, 6, 6, 2, 5, 6, 4, 6, 6, 2, 6, 6, 1, 3, 1, 5, 1, 3, 3, 3, 6, 2, 1, 2, 1, 6, 2, 4, 5, 2, 6, 1, 1, 5, 3, 3, 4, 6, 2, 3, 3, 5, 6, 2, 5, 4, 3, 1, 1, 5, 4, 5, 3, 6, 4, 6, 4, 3, 5, 3, 6, 2, 4, 2, 2, 2, 2, 1];
facility = [
  { 2 },
  { 3, 4, 5 },
  { 2, 3, 5 },
  { 4, 5 },
  { 3 },
  { 1, 2 },
  { 2, 3, 5 },
  { 2, 3 },
  { 3 },
  { 1, 2, 5 },
  { 4 },
  { 1, 2, 3 },
  { 1, 2, 5 },
  { 2, 3, 4 },
  { 3, 4, 5 },
  { 2, 4, 5 },
  { 1, 3, 4, 5 },
  { 1, 3, 4, 5 },
  { 1, 2, 3, 5 },
  { 3, 5 },
  { 1, 2, 4, 5 },
  { 2, 5 },
  { 1, 2, 3 },
  { 1, 3, 4, 5 },
  { 1, 3, 4, 5 },
  { 1, 2, 5 },
  { 1, 2 },
  { 1, 4, 5 },
  { 1, 2, 3, 5 },
  { 2, 3, 4, 5 },
  { 3 },
  { 2, 5 },
  { 1, 3, 5 },
  { 1, 4, 5 },
  { 3, 5 },
  { 2, 3, 4, 5 },
  { 1, 3, 4 },
  { 3, 5 },
  { 1, 3, 4 },
  { 1, 3, 4, 5 },
  { 1, 3, 5 },
  { 1, 3, 4 },
  { 2, 3, 4, 5 },
  { 3, 5 },
  { 1, 2, 3, 4 },
  { 1, 3, 4 },
  { 1, 3, 4, 5 },
  { 1, 2, 3, 4 },
  { 2, 3, 4, 5 },
  { 1, 2, 3, 4 },
  { 1 },
  { 1, 2, 5 },
  { 1, 2, 3, 5 },
  { 1, 5 },
  { 1, 3, 5 },
  { 1, 2, 3 },
  { 1, 2, 3, 4 },
  { 1, 3, 5 },
  { 1, 2, 3, 4, 5 },
  { 1, 2, 3, 4 },
  { 1, 4, 5 },
  { 1, 2, 4, 5 },
  { 1 },
  { 2, 5 },
  { 1, 4 },
  { 2, 3, 4, 5 },
  { 2, 4 },
  { 2 },
  { 1, 3, 4 },
  { 1, 3, 5 },
  { 2, 3 },
  { 1, 2, 3, 5 },
  { 1, 2, 4 },
  { 4, 5 },
  { 1, 2, 3, 5 },
  { 1, 3 },
  { 2, 3 },
  { 4, 5 },
  { 1, 3, 4, 5 },
  { 1, 2, 4, 5 },
  { 3 },
  { 1, 2, 3, 5 },
  { 1, 5 },
  { 1, 3, 4 },
  { 2, 3, 4, 5 },
  { 1, 2 },
  { 1, 2, 3 },
  { 1, 4, 5 },
  { 3, 4, 5 },
  { 1, 3, 5 },
  { 1, 2, 4 },
  { 1, 4 },
  { 2, 4 },
  { 3, 5 },
  { 1, 2 },
  { 2, 5 },
  { 2, 3, 4, 5 },
  { 1, 2, 5 },
  { 1, 3, 4, 5 },
  { 1, 2, 4, 5 },
  { 4, 5 },
  { 3, 4 },
  { 1, 2, 3 },
  { 1, 2, 3, 4 },
  { 1, 2 },
  { 1, 3, 5 },
  { 3, 5 },
  { 2, 3, 4, 5 },
  { 1, 2, 4 },
  { 2, 4 },
  { 2, 3, 4 },
  { 1, 3, 5 },
  { 1, 2, 3, 5 },
  { 1, 2, 4, 5 },
  { 1, 3, 5 },
  { 1, 2, 3 },
  { 4 },
  { 1, 3, 4, 5 },
  { 2, 3 },
  { 1, 4 },
  { 1, 3 },
  { 1, 2, 3 },
  { 2, 4, 5 },
  { 2, 3, 4 },
  { 2, 3, 4 },
  { 1, 5 },
  { 1, 5 },
  { 1, 4 },
  { 1, 2, 4 },
  { 1, 4, 5 },
  { 1, 4, 5 },
  { 1, 3, 4 },
  { 1, 4 },
  { 1, 5 },
  { 2, 3, 4 },
  { 2, 5 },
  { 1, 5 },
  { 5 },
  { 3, 4, 5 },
  { 2, 5 },
  { 1, 2, 3, 5 },
  { 2, 3 },
  { 2, 3, 4 },
  { 1, 2, 5 },
  { 1, 3, 4, 5 },
  { 1, 2, 3, 4, 5 },
  { 1, 3, 4, 5 },
  { 2, 4, 5 },
  { 1, 2, 4, 5 },
  { 2, 3 },
  { 2, 3 },
  { 1, 3 },
  { 2, 4 },
  { 1, 2, 3, 4, 5 },
  { 1, 3, 5 },
  { 2, 3 },
  { 1, 5 },
  { 4 },
  { 1, 2, 3 },
  { 2, 3, 4 },
  { 3, 4, 5 },
  { 1, 2, 5 },
  { 2, 4 },
  { 1 },
  { 1, 2 },
  { 2, 3, 4, 5 },
  { 1, 3 },
  { 1, 2, 3, 4 },
  { 1, 3, 4 },
  { 4 },
  { 2, 4 },
  { 3, 5 },
  { 2, 3 },
  { 1, 5 },
  { 1, 2 },
  { 2, 3, 4 },
  { 2, 3, 4, 5 },
  { 1, 2, 3, 4 },
  { 1, 3 },
  { 1, 4 },
  { 1, 2, 5 },
  { 1, 3, 4, 5 },
  { 1, 4 },
  { 1, 4, 5 },
  { 1, 2, 3, 5 },
  { 4, 5 },
  { 2, 3, 4 },
  { 3, 4, 5 },
  { 1, 2, 4, 5 },
  { 3, 5 },
  { 2, 3, 4, 5 },
  { 1, 2, 3 },
  { 1, 2, 4 },
  { 2, 3, 4 },
  { 2, 4 },
  { 1, 2 },
  { 1, 2, 3 },
  { 1, 2, 3 },
  { 2, 3, 4, 5 },
  { 1, 2, 3 }
];
producedDay = [25, 25, 25, 25, 25, 25, 25, 25, 25, 25, 25, 6, 25, 25, 25, 25, 25, 25, 25, 23, 25, 25, 25, 25, 23, 3, 25, 25, 25, 4, 25, 25, 25, 25, 25, 25, 25, 25, 3, 25, 25, 25, 25, 25, 25, 25, 25, 25, 25, 25, 25, 25, 25, 25, 22, 25, 25, 21, 25, 25, 25, 24, 25, 25, 25, 25, 25, 25, 25, 25, 25, 25, 25, 25, 25, 25, 25, 25, 25, 25, 25, 25, 25, 25, 25, 25, 25, 25, 25, 9, 25, 25, 25, 25, 25, 25, 1, 25, 25, 25, 25, 25, 25, 25, 25, 25, 25, 25, 25, 25, 25, 11, 25, 25, 25, 1, 5, 25, 2, 25, 25, 25, 25, 25, 25, 25, 25, 6, 25, 25, 25, 25, 24, 25, 25, 25, 25, 25, 25, 25, 25, 25, 25, 25, 25, 25, 25, 25, 25, 25, 25, 25, 25, 25, 25, 25, 25, 25, 25, 25, 25, 25, 25, 25, 25, 25, 25, 25, 6, 16, 25, 25, 25, 25, 25, 25, 25, 25, 25, 25, 25, 22, 25, 25, 25, 25, 25, 25, 25, 25, 25, 25, 8, 25, 25, 21, 25, 4, 25, 25];
deadLineDay = [27, 40, 50, 48, 50, 28, 42, 27, 50, 50, 50, 15, 50, 50, 37, 50, 50, 50, 50, 50, 50, 38, 50, 50, 44, 38, 50, 50, 50, 37, 42, 48, 50, 27, 34, 50, 30, 50, 28, 28, 50, 50, 50, 41, 50, 43, 38, 49, 50, 48, 50, 26, 49, 30, 50, 28, 48, 48, 47, 48, 50, 50, 27, 35, 50, 50, 40, 50, 50, 45, 43, 49, 33, 50, 50, 50, 50, 39, 50, 43, 50, 32, 40, 48, 50, 50, 50, 50, 50, 46, 43, 50, 50, 50, 40, 50, 10, 50, 50, 49, 50, 47, 44, 50, 41, 32, 50, 50, 36, 50, 27, 44, 50, 43, 33, 21, 36, 47, 44, 50, 43, 50, 26, 50, 35, 37, 50, 50, 50, 50, 35, 31, 32, 30, 50, 50, 32, 40, 32, 44, 46, 50, 50, 50, 50, 38, 30, 50, 38, 50, 42, 34, 43, 33, 50, 50, 46, 36, 50, 43, 28, 50, 50, 50, 48, 29, 49, 50, 21, 28, 50, 31, 48, 40, 50, 35, 50, 50, 50, 50, 40, 50, 50, 50, 50, 50, 50, 45, 43, 46, 48, 50, 25, 49, 50, 50, 44, 23, 37, 50];
